c WMC file for PBN EPFL/random_control/router_distill_EPFL/random_control/router_miter written by probABC
p cnf 392 975
68 22 23 0
-68 -22 0
-68 -23 0
69 10 11 0
-69 -10 0
-69 -11 0
70 -12 69 0
-70 12 0
-70 -69 0
71 13 14 0
-71 -13 0
-71 -14 0
72 70 -71 0
-72 -70 0
-72 71 0
73 -15 -16 0
-73 15 0
-73 16 0
74 72 -73 0
-74 -72 0
-74 73 0
75 17 74 0
-75 -17 0
-75 -74 0
76 -18 75 0
-76 18 0
-76 -75 0
77 19 76 0
-77 -19 0
-77 -76 0
78 -20 77 0
-78 20 0
-78 -77 0
79 -21 -78 0
-79 21 0
-79 78 0
80 -68 79 0
-80 68 0
-80 -79 0
81 -24 80 0
-81 24 0
-81 -80 0
82 -25 -81 0
-82 25 0
-82 81 0
83 -26 -82 0
-83 26 0
-83 82 0
84 27 83 0
-84 -27 0
-84 -83 0
85 -29 -30 0
-85 29 0
-85 30 0
86 -28 -85 0
-86 28 0
-86 85 0
87 84 -86 0
-87 -84 0
-87 86 0
88 -19 -76 0
-88 19 0
-88 76 0
89 20 88 0
-89 -20 0
-89 -88 0
90 -1 -2 0
-90 1 0
-90 2 0
91 -3 -4 0
-91 3 0
-91 4 0
92 -5 -6 0
-92 5 0
-92 6 0
93 -7 -92 0
-93 7 0
-93 92 0
94 -90 -91 0
-94 90 0
-94 91 0
95 -93 -94 0
-95 93 0
-95 94 0
96 10 -25 0
-96 -10 0
-96 25 0
97 18 -75 0
-97 -18 0
-97 75 0
98 76 97 0
-98 -76 0
-98 -97 0
99 -10 -11 0
-99 10 0
-99 11 0
100 12 99 0
-100 -12 0
-100 -99 0
101 -8 -9 0
-101 8 0
-101 9 0
102 17 -71 0
-102 -17 0
-102 71 0
103 -73 -101 0
-103 73 0
-103 101 0
104 -102 -103 0
-104 102 0
-104 103 0
105 70 100 0
-105 -70 0
-105 -100 0
106 -104 -105 0
-106 104 0
-106 105 0
107 -28 84 0
-107 28 0
-107 -84 0
108 28 -84 0
-108 -28 0
-108 84 0
109 107 108 0
-109 -107 0
-109 -108 0
110 -27 -83 0
-110 27 0
-110 83 0
111 84 110 0
-111 -84 0
-111 -110 0
112 26 82 0
-112 -26 0
-112 -82 0
113 83 112 0
-113 -83 0
-113 -112 0
114 -21 -24 0
-114 21 0
-114 24 0
115 -68 -114 0
-115 68 0
-115 114 0
116 -85 -96 0
-116 85 0
-116 96 0
117 -115 -116 0
-117 115 0
-117 116 0
118 -95 -117 0
-118 95 0
-118 117 0
119 -106 -118 0
-119 106 0
-119 118 0
120 -98 -119 0
-120 98 0
-120 119 0
121 78 -120 0
-121 -78 0
-121 120 0
122 89 -121 0
-122 -89 0
-122 121 0
123 -113 -122 0
-123 113 0
-123 122 0
124 111 -123 0
-124 -111 0
-124 123 0
125 -109 -124 0
-125 109 0
-125 124 0
126 87 125 0
-126 -87 0
-126 -125 0
127 -10 -21 0
-127 10 0
-127 21 0
128 25 81 0
-128 -25 0
-128 -81 0
129 82 128 0
-129 -82 0
-129 -128 0
130 -24 -68 0
-130 24 0
-130 68 0
131 -17 -74 0
-131 17 0
-131 74 0
132 -10 11 0
-132 10 0
-132 -11 0
133 10 -11 0
-133 -10 0
-133 11 0
134 132 133 0
-134 -132 0
-134 -133 0
135 15 16 0
-135 -15 0
-135 -16 0
136 -69 135 0
-136 69 0
-136 -135 0
137 69 73 0
-137 -69 0
-137 -73 0
138 2 3 0
-138 -2 0
-138 -3 0
139 4 5 0
-139 -4 0
-139 -5 0
140 6 7 0
-140 -6 0
-140 -7 0
141 8 9 0
-141 -8 0
-141 -9 0
142 -12 13 0
-142 12 0
-142 -13 0
143 14 -142 0
-143 -14 0
-143 142 0
144 -140 -141 0
-144 140 0
-144 141 0
145 -138 -139 0
-145 138 0
-145 139 0
146 -144 -145 0
-146 144 0
-146 145 0
147 134 -143 0
-147 -134 0
-147 143 0
148 136 137 0
-148 -136 0
-148 -137 0
149 -147 -148 0
-149 147 0
-149 148 0
150 -146 -149 0
-150 146 0
-150 149 0
151 75 -150 0
-151 -75 0
-151 150 0
152 131 -151 0
-152 -131 0
-152 151 0
153 -127 -130 0
-153 127 0
-153 130 0
154 88 -153 0
-154 -88 0
-154 153 0
155 98 -152 0
-155 -98 0
-155 152 0
156 -154 -155 0
-156 154 0
-156 155 0
157 -78 -156 0
-157 78 0
-157 156 0
158 129 -157 0
-158 -129 0
-158 157 0
159 113 -158 0
-159 -113 0
-159 158 0
160 -111 -159 0
-160 111 0
-160 159 0
161 109 -160 0
-161 -109 0
-161 160 0
162 -87 161 0
-162 87 0
-162 -161 0
163 126 162 0
-163 -126 0
-163 -162 0
164 -24 -25 0
-164 24 0
-164 25 0
165 61 76 0
-165 -61 0
-165 -76 0
166 -61 -76 0
-166 61 0
-166 76 0
167 165 166 0
-167 -165 0
-167 -166 0
168 19 167 0
-168 -19 0
-168 -167 0
169 -20 168 0
-169 20 0
-169 -168 0
170 -21 -169 0
-170 21 0
-170 169 0
171 -68 170 0
-171 68 0
-171 -170 0
172 -164 171 0
-172 164 0
-172 -171 0
173 -26 -172 0
-173 26 0
-173 172 0
174 27 173 0
-174 -27 0
-174 -173 0
175 -86 174 0
-175 86 0
-175 -174 0
176 -19 -167 0
-176 19 0
-176 167 0
177 -20 -168 0
-177 20 0
-177 168 0
178 176 177 0
-178 -176 0
-178 -177 0
179 -26 27 0
-179 26 0
-179 -27 0
180 -96 -179 0
-180 96 0
-180 179 0
181 -86 -180 0
-181 86 0
-181 180 0
182 -130 -181 0
-182 130 0
-182 181 0
183 -62 -182 0
-183 62 0
-183 182 0
184 62 182 0
-184 -62 0
-184 -182 0
185 97 167 0
-185 -97 0
-185 -167 0
186 -21 -106 0
-186 21 0
-186 106 0
187 183 -186 0
-187 -183 0
-187 186 0
188 184 -187 0
-188 -184 0
-188 187 0
189 -185 -188 0
-189 185 0
-189 188 0
190 169 -189 0
-190 -169 0
-190 189 0
191 178 -190 0
-191 -178 0
-191 190 0
192 63 191 0
-192 -63 0
-192 -191 0
193 -63 -191 0
-193 63 0
-193 191 0
194 -95 192 0
-194 95 0
-194 -192 0
195 193 -194 0
-195 -193 0
-195 194 0
196 175 195 0
-196 -175 0
-196 -195 0
197 26 172 0
-197 -26 0
-197 -172 0
198 -27 197 0
-198 27 0
-198 -197 0
199 -28 -68 0
-199 28 0
-199 68 0
200 -127 -164 0
-200 127 0
-200 164 0
201 -199 -200 0
-201 199 0
-201 200 0
202 -152 -201 0
-202 152 0
-202 201 0
203 176 -202 0
-203 -176 0
-203 202 0
204 185 -203 0
-204 -185 0
-204 203 0
205 -169 -204 0
-205 169 0
-205 204 0
206 198 -205 0
-206 -198 0
-206 205 0
207 -175 206 0
-207 175 0
-207 -206 0
208 196 207 0
-208 -196 0
-208 -207 0
209 163 -208 0
-209 -163 0
-209 208 0
210 -58 -59 0
-210 58 0
-210 59 0
211 -55 -56 0
-211 55 0
-211 56 0
212 40 41 0
-212 -40 0
-212 -41 0
213 -42 212 0
-213 42 0
-213 -212 0
214 43 213 0
-214 -43 0
-214 -213 0
215 44 -214 0
-215 -44 0
-215 214 0
216 -45 -46 0
-216 45 0
-216 46 0
217 215 -216 0
-217 -215 0
-217 216 0
218 47 217 0
-218 -47 0
-218 -217 0
219 -48 218 0
-219 48 0
-219 -218 0
220 49 219 0
-220 -49 0
-220 -219 0
221 -50 -51 0
-221 50 0
-221 51 0
222 220 -221 0
-222 -220 0
-222 221 0
223 52 53 0
-223 -52 0
-223 -53 0
224 222 -223 0
-224 -222 0
-224 223 0
225 -54 -211 0
-225 54 0
-225 211 0
226 224 -225 0
-226 -224 0
-226 225 0
227 57 226 0
-227 -57 0
-227 -226 0
228 -60 -210 0
-228 60 0
-228 210 0
229 227 -228 0
-229 -227 0
-229 228 0
230 -1 -31 0
-230 1 0
-230 31 0
231 42 -212 0
-231 -42 0
-231 212 0
232 213 231 0
-232 -213 0
-232 -231 0
233 -46 47 0
-233 46 0
-233 -47 0
234 -43 -213 0
-234 43 0
-234 213 0
235 49 -219 0
-235 -49 0
-235 219 0
236 48 -49 0
-236 -48 0
-236 49 0
237 -218 -236 0
-237 218 0
-237 236 0
238 235 237 0
-238 -235 0
-238 -237 0
239 53 -54 0
-239 -53 0
-239 54 0
240 -56 57 0
-240 56 0
-240 -57 0
241 32 33 0
-241 -32 0
-241 -33 0
242 34 35 0
-242 -34 0
-242 -35 0
243 36 37 0
-243 -36 0
-243 -37 0
244 38 39 0
-244 -38 0
-244 -39 0
245 -40 41 0
-245 40 0
-245 -41 0
246 -244 -245 0
-246 244 0
-246 245 0
247 -242 -243 0
-247 242 0
-247 243 0
248 -240 -241 0
-248 240 0
-248 241 0
249 -247 -248 0
-249 247 0
-249 248 0
250 -246 -249 0
-250 246 0
-250 249 0
251 44 -45 0
-251 -44 0
-251 45 0
252 52 -55 0
-252 -52 0
-252 55 0
253 -58 -252 0
-253 58 0
-253 252 0
254 -221 -251 0
-254 221 0
-254 251 0
255 -233 -239 0
-255 233 0
-255 239 0
256 -254 -255 0
-256 254 0
-256 255 0
257 -253 -256 0
-257 253 0
-257 256 0
258 214 232 0
-258 -214 0
-258 -232 0
259 234 -258 0
-259 -234 0
-259 258 0
260 -250 -257 0
-260 250 0
-260 257 0
261 -259 -260 0
-261 259 0
-261 260 0
262 238 -261 0
-262 -238 0
-262 261 0
263 230 -262 0
-263 -230 0
-263 262 0
264 -229 263 0
-264 229 0
-264 -263 0
265 -163 -264 0
-265 163 0
-265 264 0
266 49 -50 0
-266 -49 0
-266 50 0
267 64 213 0
-267 -64 0
-267 -213 0
268 -64 -213 0
-268 64 0
-268 213 0
269 267 268 0
-269 -267 0
-269 -268 0
270 43 269 0
-270 -43 0
-270 -269 0
271 44 -270 0
-271 -44 0
-271 270 0
272 -45 271 0
-272 45 0
-272 -271 0
273 -46 -272 0
-273 46 0
-273 272 0
274 47 273 0
-274 -47 0
-274 -273 0
275 -48 274 0
-275 48 0
-275 -274 0
276 49 275 0
-276 -49 0
-276 -275 0
277 -221 276 0
-277 221 0
-277 -276 0
278 52 277 0
-278 -52 0
-278 -277 0
279 53 -278 0
-279 -53 0
-279 278 0
280 -65 279 0
-280 65 0
-280 -279 0
281 65 -279 0
-281 -65 0
-281 279 0
282 -54 280 0
-282 54 0
-282 -280 0
283 281 -282 0
-283 -281 0
-283 282 0
284 -55 -283 0
-284 55 0
-284 283 0
285 -231 269 0
-285 231 0
-285 -269 0
286 -43 285 0
-286 43 0
-286 -285 0
287 -48 -233 0
-287 48 0
-287 233 0
288 -251 -266 0
-288 251 0
-288 266 0
289 -287 -288 0
-289 287 0
-289 288 0
290 -250 -289 0
-290 250 0
-290 289 0
291 270 -290 0
-291 -270 0
-291 290 0
292 286 -291 0
-292 -286 0
-292 291 0
293 -284 -292 0
-293 284 0
-293 292 0
294 -52 -277 0
-294 52 0
-294 277 0
295 -50 276 0
-295 50 0
-295 -276 0
296 -51 295 0
-296 51 0
-296 -295 0
297 -66 296 0
-297 66 0
-297 -296 0
298 51 295 0
-298 -51 0
-298 -295 0
299 66 277 0
-299 -66 0
-299 -277 0
300 298 -299 0
-300 -298 0
-300 299 0
301 297 300 0
-301 -297 0
-301 -300 0
302 53 278 0
-302 -53 0
-302 -278 0
303 294 -302 0
-303 -294 0
-303 302 0
304 -301 -303 0
-304 301 0
-304 303 0
305 230 -304 0
-305 -230 0
-305 304 0
306 -293 -305 0
-306 293 0
-306 305 0
307 -56 -284 0
-307 56 0
-307 284 0
308 57 307 0
-308 -57 0
-308 -307 0
309 -60 308 0
-309 60 0
-309 -308 0
310 -208 -210 0
-310 208 0
-310 210 0
311 306 -310 0
-311 -306 0
-311 310 0
312 -309 -311 0
-312 309 0
-312 311 0
313 265 312 0
-313 -265 0
-313 -312 0
314 -265 -312 0
-314 265 0
-314 312 0
315 313 314 0
-315 -313 0
-315 -314 0
316 1 31 0
-316 -1 0
-316 -31 0
317 -229 316 0
-317 229 0
-317 -316 0
318 -229 262 0
-318 229 0
-318 -262 0
319 -35 -36 0
-319 35 0
-319 36 0
320 -212 -319 0
-320 212 0
-320 319 0
321 -31 -32 0
-321 31 0
-321 32 0
322 -33 -34 0
-322 33 0
-322 34 0
323 -60 -322 0
-323 60 0
-323 322 0
324 -321 -323 0
-324 321 0
-324 323 0
325 -53 54 0
-325 53 0
-325 -54 0
326 -222 325 0
-326 222 0
-326 -325 0
327 222 239 0
-327 -222 0
-327 -239 0
328 50 -219 0
-328 -50 0
-328 219 0
329 266 328 0
-329 -266 0
-329 -328 0
330 -37 -38 0
-330 37 0
-330 38 0
331 -39 -330 0
-331 39 0
-331 330 0
332 47 -48 0
-332 -47 0
-332 48 0
333 -46 -51 0
-333 46 0
-333 51 0
334 -252 -333 0
-334 252 0
-334 333 0
335 -210 -251 0
-335 210 0
-335 251 0
336 -240 -332 0
-336 240 0
-336 332 0
337 -335 -336 0
-337 335 0
-337 336 0
338 231 -334 0
-338 -231 0
-338 334 0
339 -320 -331 0
-339 320 0
-339 331 0
340 -338 -339 0
-340 338 0
-340 339 0
341 -214 -337 0
-341 214 0
-341 337 0
342 -324 -341 0
-342 324 0
-342 341 0
343 -340 -342 0
-343 340 0
-343 342 0
344 235 -343 0
-344 -235 0
-344 343 0
345 329 -344 0
-345 -329 0
-345 344 0
346 326 -345 0
-346 -326 0
-346 345 0
347 327 -346 0
-347 -327 0
-347 346 0
348 318 347 0
-348 -318 0
-348 -347 0
349 1 348 0
-349 -1 0
-349 -348 0
350 317 349 0
-350 -317 0
-350 -349 0
351 126 350 0
-351 -126 0
-351 -350 0
352 162 351 0
-352 -162 0
-352 -351 0
353 -53 65 0
-353 53 0
-353 -65 0
354 278 -353 0
-354 -278 0
-354 353 0
355 54 354 0
-355 -54 0
-355 -354 0
356 -49 -275 0
-356 49 0
-356 275 0
357 276 356 0
-357 -276 0
-357 -356 0
358 50 -276 0
-358 -50 0
-358 276 0
359 46 272 0
-359 -46 0
-359 -272 0
360 1 43 0
-360 -1 0
-360 -43 0
361 52 57 0
-361 -52 0
-361 -57 0
362 -360 -361 0
-362 360 0
-362 361 0
363 -211 -251 0
-363 211 0
-363 251 0
364 -332 -363 0
-364 332 0
-364 363 0
365 231 -362 0
-365 -231 0
-365 362 0
366 -339 -365 0
-366 339 0
-366 365 0
367 -324 -364 0
-367 324 0
-367 364 0
368 -366 -367 0
-368 366 0
-368 367 0
369 269 -368 0
-369 -269 0
-369 368 0
370 273 -369 0
-370 -273 0
-370 369 0
371 359 -370 0
-371 -359 0
-371 370 0
372 295 -371 0
-372 -295 0
-372 371 0
373 357 358 0
-373 -357 0
-373 -358 0
374 -372 -373 0
-374 372 0
-374 373 0
375 301 -374 0
-375 -301 0
-375 374 0
376 355 -375 0
-376 -355 0
-376 375 0
377 283 -376 0
-377 -283 0
-377 376 0
378 -304 -316 0
-378 304 0
-378 316 0
379 -293 -378 0
-379 293 0
-379 378 0
380 -309 379 0
-380 309 0
-380 -379 0
381 377 380 0
-381 -377 0
-381 -380 0
382 196 -210 0
-382 -196 0
-382 210 0
383 381 -382 0
-383 -381 0
-383 382 0
384 207 383 0
-384 -207 0
-384 -383 0
385 352 -384 0
-385 -352 0
-385 384 0
386 -352 384 0
-386 352 0
-386 -384 0
387 -163 208 0
-387 163 0
-387 -208 0
388 209 387 0
-388 -209 0
-388 -387 0
389 315 -388 0
-389 -315 0
-389 388 0
390 385 -389 0
-390 -385 0
-390 389 0
391 386 -390 0
-391 -386 0
-391 390 0
67 391 0
-67 -391 0
67 0
w 1 0.500000
w 2 0.500000
w 3 0.500000
w 4 0.500000
w 5 0.500000
w 6 0.500000
w 7 0.500000
w 8 0.500000
w 9 0.500000
w 10 0.500000
w 11 0.500000
w 12 0.500000
w 13 0.500000
w 14 0.500000
w 15 0.500000
w 16 0.500000
w 17 0.500000
w 18 0.500000
w 19 0.500000
w 20 0.500000
w 21 0.500000
w 22 0.500000
w 23 0.500000
w 24 0.500000
w 25 0.500000
w 26 0.500000
w 27 0.500000
w 28 0.500000
w 29 0.500000
w 30 0.500000
w 31 0.500000
w 32 0.500000
w 33 0.500000
w 34 0.500000
w 35 0.500000
w 36 0.500000
w 37 0.500000
w 38 0.500000
w 39 0.500000
w 40 0.500000
w 41 0.500000
w 42 0.500000
w 43 0.500000
w 44 0.500000
w 45 0.500000
w 46 0.500000
w 47 0.500000
w 48 0.500000
w 49 0.500000
w 50 0.500000
w 51 0.500000
w 52 0.500000
w 53 0.500000
w 54 0.500000
w 55 0.500000
w 56 0.500000
w 57 0.500000
w 58 0.500000
w 59 0.500000
w 60 0.500000
w 61 0.125000
w 62 0.125000
w 63 0.125000
w 64 0.125000
w 65 0.125000
w 66 0.125000
w 68 -1
w 69 -1
w 70 -1
w 71 -1
w 72 -1
w 73 -1
w 74 -1
w 75 -1
w 76 -1
w 77 -1
w 78 -1
w 79 -1
w 80 -1
w 81 -1
w 82 -1
w 83 -1
w 84 -1
w 85 -1
w 86 -1
w 87 -1
w 88 -1
w 89 -1
w 90 -1
w 91 -1
w 92 -1
w 93 -1
w 94 -1
w 95 -1
w 96 -1
w 97 -1
w 98 -1
w 99 -1
w 100 -1
w 101 -1
w 102 -1
w 103 -1
w 104 -1
w 105 -1
w 106 -1
w 107 -1
w 108 -1
w 109 -1
w 110 -1
w 111 -1
w 112 -1
w 113 -1
w 114 -1
w 115 -1
w 116 -1
w 117 -1
w 118 -1
w 119 -1
w 120 -1
w 121 -1
w 122 -1
w 123 -1
w 124 -1
w 125 -1
w 126 -1
w 127 -1
w 128 -1
w 129 -1
w 130 -1
w 131 -1
w 132 -1
w 133 -1
w 134 -1
w 135 -1
w 136 -1
w 137 -1
w 138 -1
w 139 -1
w 140 -1
w 141 -1
w 142 -1
w 143 -1
w 144 -1
w 145 -1
w 146 -1
w 147 -1
w 148 -1
w 149 -1
w 150 -1
w 151 -1
w 152 -1
w 153 -1
w 154 -1
w 155 -1
w 156 -1
w 157 -1
w 158 -1
w 159 -1
w 160 -1
w 161 -1
w 162 -1
w 163 -1
w 164 -1
w 165 -1
w 166 -1
w 167 -1
w 168 -1
w 169 -1
w 170 -1
w 171 -1
w 172 -1
w 173 -1
w 174 -1
w 175 -1
w 176 -1
w 177 -1
w 178 -1
w 179 -1
w 180 -1
w 181 -1
w 182 -1
w 183 -1
w 184 -1
w 185 -1
w 186 -1
w 187 -1
w 188 -1
w 189 -1
w 190 -1
w 191 -1
w 192 -1
w 193 -1
w 194 -1
w 195 -1
w 196 -1
w 197 -1
w 198 -1
w 199 -1
w 200 -1
w 201 -1
w 202 -1
w 203 -1
w 204 -1
w 205 -1
w 206 -1
w 207 -1
w 208 -1
w 209 -1
w 210 -1
w 211 -1
w 212 -1
w 213 -1
w 214 -1
w 215 -1
w 216 -1
w 217 -1
w 218 -1
w 219 -1
w 220 -1
w 221 -1
w 222 -1
w 223 -1
w 224 -1
w 225 -1
w 226 -1
w 227 -1
w 228 -1
w 229 -1
w 230 -1
w 231 -1
w 232 -1
w 233 -1
w 234 -1
w 235 -1
w 236 -1
w 237 -1
w 238 -1
w 239 -1
w 240 -1
w 241 -1
w 242 -1
w 243 -1
w 244 -1
w 245 -1
w 246 -1
w 247 -1
w 248 -1
w 249 -1
w 250 -1
w 251 -1
w 252 -1
w 253 -1
w 254 -1
w 255 -1
w 256 -1
w 257 -1
w 258 -1
w 259 -1
w 260 -1
w 261 -1
w 262 -1
w 263 -1
w 264 -1
w 265 -1
w 266 -1
w 267 -1
w 268 -1
w 269 -1
w 270 -1
w 271 -1
w 272 -1
w 273 -1
w 274 -1
w 275 -1
w 276 -1
w 277 -1
w 278 -1
w 279 -1
w 280 -1
w 281 -1
w 282 -1
w 283 -1
w 284 -1
w 285 -1
w 286 -1
w 287 -1
w 288 -1
w 289 -1
w 290 -1
w 291 -1
w 292 -1
w 293 -1
w 294 -1
w 295 -1
w 296 -1
w 297 -1
w 298 -1
w 299 -1
w 300 -1
w 301 -1
w 302 -1
w 303 -1
w 304 -1
w 305 -1
w 306 -1
w 307 -1
w 308 -1
w 309 -1
w 310 -1
w 311 -1
w 312 -1
w 313 -1
w 314 -1
w 315 -1
w 316 -1
w 317 -1
w 318 -1
w 319 -1
w 320 -1
w 321 -1
w 322 -1
w 323 -1
w 324 -1
w 325 -1
w 326 -1
w 327 -1
w 328 -1
w 329 -1
w 330 -1
w 331 -1
w 332 -1
w 333 -1
w 334 -1
w 335 -1
w 336 -1
w 337 -1
w 338 -1
w 339 -1
w 340 -1
w 341 -1
w 342 -1
w 343 -1
w 344 -1
w 345 -1
w 346 -1
w 347 -1
w 348 -1
w 349 -1
w 350 -1
w 351 -1
w 352 -1
w 353 -1
w 354 -1
w 355 -1
w 356 -1
w 357 -1
w 358 -1
w 359 -1
w 360 -1
w 361 -1
w 362 -1
w 363 -1
w 364 -1
w 365 -1
w 366 -1
w 367 -1
w 368 -1
w 369 -1
w 370 -1
w 371 -1
w 372 -1
w 373 -1
w 374 -1
w 375 -1
w 376 -1
w 377 -1
w 378 -1
w 379 -1
w 380 -1
w 381 -1
w 382 -1
w 383 -1
w 384 -1
w 385 -1
w 386 -1
w 387 -1
w 388 -1
w 389 -1
w 390 -1
w 391 -1
w 67 -1
